%SETS
JOBS     = 1..3;
MACHINES = 1..11;
SPEED    = 1;

time               = array3d(JOBS,MACHINES,1..SPEED,[57, 61, 93, 16, 17, 11, 84, 80, 88, 98, 81, 51, 80, 20, 67, 22, 95, 56, 47, 33, 79, 51, 61, 11, 65, 65, 65, 94, 71, 42, 49, 72, 15]);
energy             = array3d(JOBS,MACHINES,1..SPEED,[56, 54, 39, 85, 84, 89, 43, 44, 41, 37, 44, 60, 44, 81, 51, 80, 38, 57, 62, 71, 45, 60, 54, 89, 52, 52, 52, 39, 49, 65, 61, 48, 86]);
precedence         = array2d(JOBS,MACHINES,[3,1,5,10,0,2,9,8,4,6,7,2,0,1,7,8,10,5,3,6,9,4,4,3,6,7,10,5,1,2,9,0,8]);